
c--------------------------------------------------------------
c	Ferhat Erata
c	CPSC 454/554
c	Mon Dec  9 2019	14:53:53
c--------------------------------------------------------------
c 10 35
c 6 -1 -9 1 -7 8 9 2 
c -8 4 
c 9 3 -1 -1 -9 4 -5 9 
c 2 -4 4 -1 -5 -5 -8 9 6 
c 10 3 -5 
c -3 -5 1 -9 8 6 -2 
c -1 -6 
c 2 10 -3 -1 -2 -5 -1 3 
c 10 -9 2 6 
c 8 8 3 4 5 4 -10 5 6 3 
c -1 -10 8 7 -5 5 -6 5 
c 4 7 -6 -3 1 9 
c 1 -9 2 -10 8 4 -2 -6 
c -5 -10 -9 -9 -9 -9 -2 5 10 
c -1 4 
c 5 -4 4 6 -7 1 
c 8 
c -2 10 -5 10 -4 
c 4 4 1 -5 8 -4 -9 
c -1 8 2 -7 1 8 7 -6 2 -2 
c -5 8 -4 6 -2 -3 -7 2 
c 9 6 -3 2 -9 
c -8 -1 -7 -5 
c 3 
c -6 -6 
c -4 
c 10 -3 -10 -5 10 1 7 -2 -10 
c 7 6 9 -8 4 -10 10 -9 -10 
c -2 -4 9 -2 
c -5 5 6 9 -2 -7 -9 
c 9 -1 -2 -5 
c -1 -1 9 10 
c -7 10 6 -9 5 2 6 -5 1 1 
c 5 5 -10 10 -4 -2 -2 -4 
c -5 -4 2 10 1 
s UNSATISFIABLE
c--------------------------------------------------------------
c statistics of ../../bench1/unsat/10-35.cnf:
c [ mem_used: 417, conflicts: 0, lemmas: 0, max_lemmas: 2000 ]
c--------------------------------------------------------------
c	Normal termination.
